p cnf 30 94
1 2 3 0
4 5 6 0
7 8 9 0
10 11 12 0
13 14 15 0
16 17 18 0
19 20 21 0
22 23 24 0
25 26 27 0
28 29 30 0
-1 -2 0
-1 -3 0
-2 -3 0
-4 -5 0
-4 -6 0
-5 -6 0
-7 -8 0
-7 -9 0
-8 -9 0
-10 -11 0
-10 -12 0
-11 -12 0
-13 -14 0
-13 -15 0
-14 -15 0
-16 -17 0
-16 -18 0
-17 -18 0
-19 -20 0
-19 -21 0
-20 -21 0
-22 -23 0
-22 -24 0
-23 -24 0
-25 -26 0
-25 -27 0
-26 -27 0
-28 -29 0
-28 -30 0
-29 -30 0
-1 -19 0
-1 -28 0
-4 -10 0
-4 -25 0
-7 -19 0
-7 -28 0
-10 -4 0
-10 -22 0
-13 -22 0
-13 -25 0
-19 -1 0
-19 -7 0
-22 -10 0
-22 -13 0
-25 -4 0
-25 -13 0
-28 -1 0
-28 -7 0
-2 -20 0
-2 -29 0
-5 -11 0
-5 -26 0
-8 -20 0
-8 -29 0
-11 -5 0
-11 -23 0
-14 -23 0
-14 -26 0
-20 -2 0
-20 -8 0
-23 -11 0
-23 -14 0
-26 -5 0
-26 -14 0
-29 -2 0
-29 -8 0
-3 -21 0
-3 -30 0
-6 -12 0
-6 -27 0
-9 -21 0
-9 -30 0
-12 -6 0
-12 -24 0
-15 -24 0
-15 -27 0
-21 -3 0
-21 -9 0
-24 -12 0
-24 -15 0
-27 -6 0
-27 -15 0
-30 -3 0
-30 -9 0
